# Solution for model micodag
# Objective value = 2.0244482043251011e+01
s_0_1 0
s_1_0 0
s_0_2 0
s_2_0 2.2916862028265284e-01
s_1_2 0
s_2_1 2.2968740495434181e-01
s_1_3 0
s_3_1 2.5072988482565917e-01
s_1_9 0
s_9_1 0
s_1_12 0
s_12_1 6.3996817824239116e-01
s_1_13 0
s_13_1 0.194095205782145
s_2_3 0
s_3_2 2.2038193656737715e-01
s_2_4 0
s_4_2 4.3886830122106657e-01
s_2_6 0
s_6_2 0
s_2_8 0
s_8_2 1.8718971740381951e-01
s_3_4 0
s_4_3 7.0337607694875914e-01
s_3_6 0
s_6_3 0
s_3_7 0
s_7_3 0
s_3_8 0
s_8_3 3.9961548128178492e-01
s_3_9 0
s_9_3 3.8047899559925380e-01
s_3_12 0
s_12_3 0
s_3_13 0
s_13_3 4.1029660944808910e-01
s_4_5 0
s_5_4 0
s_4_6 0
s_6_4 3.2890466787358008e-01
s_4_7 0
s_7_4 0
s_4_8 0
s_8_4 0
s_4_11 0
s_11_4 4.3070063304986306e-01
s_5_6 0
s_6_5 5.3952215638997014e-01
s_5_7 0
s_7_5 5.3883666276538067e-01
s_5_14 0
s_14_5 3.7699814805606646e-01
s_6_8 0
s_8_6 3.9754429205699759e-01
s_7_8 0
s_8_7 0
s_7_9 0
s_9_7 3.9245880321883764e-01
s_7_10 0
s_10_7 2.5007120202150679e-01
s_7_11 0
s_11_7 4.0342727591333194e-01
s_8_11 0
s_11_8 2.2619894539423591e-01
s_9_12 0
s_12_9 3.8287932638250277e-01
s_12_13 0
s_13_12 2.6669295015962025e-01
s_0_0 9.0724059987470040e-01
s_1_1 6.0895469308610073e-01
s_2_2 6.5824191799910348e-01
s_3_3 6.7399834163948147e-01
s_4_4 1.0982069960177112e+00
s_5_5 6.5466516080193493e-01
s_6_6 8.8719983735702268e-01
s_7_7 9.5165603138990029e-01
s_8_8 6.4723132038176590e-01
s_9_9 9.8690370719987364e-01
s_10_10 6.9532988068842849e-01
s_11_11 6.7847708916092886e-01
s_12_12 1.0413314329875596e+00
s_13_13 6.0403310437265922e-01
s_14_14 0.889178747312815
Gamma_0_0 9.5249178467570050e-01
Gamma_0_1 0
Gamma_0_2 0
Gamma_0_3 0
Gamma_0_4 0
Gamma_0_5 0
Gamma_0_6 0
Gamma_0_7 0
Gamma_0_8 0
Gamma_0_9 0
Gamma_0_10 0
Gamma_0_11 0
Gamma_0_12 0
Gamma_0_13 0
Gamma_0_14 0
Gamma_1_0 0
Gamma_1_1 0.780355491481992
Gamma_1_2 0
Gamma_1_3 0
Gamma_1_4 0
Gamma_1_5 0
Gamma_1_6 0
Gamma_1_7 0
Gamma_1_8 0
Gamma_1_9 0
Gamma_1_10 0
Gamma_1_11 0
Gamma_1_12 0
Gamma_1_13 0
Gamma_1_14 0
Gamma_2_0 -0.47871559435917
Gamma_2_1 -4.7925713865767533e-01
Gamma_2_2 8.1132109426484378e-01
Gamma_2_3 0
Gamma_2_4 0
Gamma_2_5 0
Gamma_2_6 0
Gamma_2_7 0
Gamma_2_8 0
Gamma_2_9 0
Gamma_2_10 0
Gamma_2_11 0
Gamma_2_12 0
Gamma_2_13 0
Gamma_2_14 0
Gamma_3_0 0
Gamma_3_1 5.0072935287005060e-01
Gamma_3_2 4.6944854517548296e-01
Gamma_3_3 8.2097402007583742e-01
Gamma_3_4 0
Gamma_3_5 0
Gamma_3_6 0
Gamma_3_7 0
Gamma_3_8 0
Gamma_3_9 0
Gamma_3_10 0
Gamma_3_11 0
Gamma_3_12 0
Gamma_3_13 0
Gamma_3_14 0
Gamma_4_0 0
Gamma_4_1 0
Gamma_4_2 6.6247135879301766e-01
Gamma_4_3 8.3867519156629355e-01
Gamma_4_4 1.0479537184521610e+00
Gamma_4_5 0
Gamma_4_6 0
Gamma_4_7 0
Gamma_4_8 0
Gamma_4_9 0
Gamma_4_10 0
Gamma_4_11 0
Gamma_4_12 0
Gamma_4_13 0
Gamma_4_14 0
Gamma_5_0 0
Gamma_5_1 0
Gamma_5_2 0
Gamma_5_3 0
Gamma_5_4 0
Gamma_5_5 8.0911381202024657e-01
Gamma_5_6 0
Gamma_5_7 0
Gamma_5_8 0
Gamma_5_9 0
Gamma_5_10 0
Gamma_5_11 0
Gamma_5_12 0
Gamma_5_13 0
Gamma_5_14 0
Gamma_6_0 0
Gamma_6_1 0
Gamma_6_2 0
Gamma_6_3 0
Gamma_6_4 -5.7350210799401635e-01
Gamma_6_5 7.3452171948143952e-01
Gamma_6_6 9.4191286080880277e-01
Gamma_6_7 0
Gamma_6_8 0
Gamma_6_9 0
Gamma_6_10 0
Gamma_6_11 0
Gamma_6_12 0
Gamma_6_13 0
Gamma_6_14 0
Gamma_7_0 0
Gamma_7_1 0
Gamma_7_2 0
Gamma_7_3 0
Gamma_7_4 0
Gamma_7_5 -7.3405494533132953e-01
Gamma_7_6 0
Gamma_7_7 9.7552859075985088e-01
Gamma_7_8 0
Gamma_7_9 0
Gamma_7_10 0
Gamma_7_11 0
Gamma_7_12 0
Gamma_7_13 0
Gamma_7_14 0
Gamma_8_0 0
Gamma_8_1 0
Gamma_8_2 4.3265427006308371e-01
Gamma_8_3 6.3215147020455908e-01
Gamma_8_4 0
Gamma_8_5 0
Gamma_8_6 -6.3051113555352689e-01
Gamma_8_7 0
Gamma_8_8 8.0450688025756867e-01
Gamma_8_9 0
Gamma_8_10 0
Gamma_8_11 0
Gamma_8_12 0
Gamma_8_13 0
Gamma_8_14 0
Gamma_9_0 0
Gamma_9_1 0
Gamma_9_2 0
Gamma_9_3 6.1682979467536625e-01
Gamma_9_4 0
Gamma_9_5 0
Gamma_9_6 0
Gamma_9_7 -6.2646532483357620e-01
Gamma_9_8 0
Gamma_9_9 9.9343027294313624e-01
Gamma_9_10 0
Gamma_9_11 0
Gamma_9_12 0
Gamma_9_13 0
Gamma_9_14 0
Gamma_10_0 0
Gamma_10_1 0
Gamma_10_2 0
Gamma_10_3 0
Gamma_10_4 0
Gamma_10_5 0
Gamma_10_6 0
Gamma_10_7 5.0007119695250135e-01
Gamma_10_8 0
Gamma_10_9 0
Gamma_10_10 8.3386442584417075e-01
Gamma_10_11 0
Gamma_10_12 0
Gamma_10_13 0
Gamma_10_14 0
Gamma_11_0 0
Gamma_11_1 0
Gamma_11_2 0
Gamma_11_3 0
Gamma_11_4 -6.5627786268459753e-01
Gamma_11_5 0
Gamma_11_6 0
Gamma_11_7 6.3515925240315319e-01
Gamma_11_8 4.7560376932299003e-01
Gamma_11_9 0
Gamma_11_10 0
Gamma_11_11 0.823697207207193
Gamma_11_12 0
Gamma_11_13 0
Gamma_11_14 0
Gamma_12_0 0
Gamma_12_1 -7.9998011115426582e-01
Gamma_12_2 0
Gamma_12_3 0
Gamma_12_4 0
Gamma_12_5 0
Gamma_12_6 0
Gamma_12_7 0
Gamma_12_8 0
Gamma_12_9 -6.1877243505387591e-01
Gamma_12_10 0
Gamma_12_11 0
Gamma_12_12 1.0204564826525233e+00
Gamma_12_13 0
Gamma_12_14 0
Gamma_13_0 0
Gamma_13_1 4.4056237445127483e-01
Gamma_13_2 0
Gamma_13_3 6.4054399493562475e-01
Gamma_13_4 0
Gamma_13_5 0
Gamma_13_6 0
Gamma_13_7 0
Gamma_13_8 0
Gamma_13_9 0
Gamma_13_10 0
Gamma_13_11 0
Gamma_13_12 5.1642322774989569e-01
Gamma_13_13 7.7719566672277551e-01
Gamma_13_14 0
Gamma_14_0 0
Gamma_14_1 0
Gamma_14_2 0
Gamma_14_3 0
Gamma_14_4 0
Gamma_14_5 6.1400174922883277e-01
Gamma_14_6 0
Gamma_14_7 0
Gamma_14_8 0
Gamma_14_9 0
Gamma_14_10 0
Gamma_14_11 0
Gamma_14_12 0
Gamma_14_13 0
Gamma_14_14 9.4296274969524407e-01
psi_0 6
psi_1 6
psi_2 5
psi_3 4
psi_4 3
psi_5 4
psi_6 2
psi_7 3
psi_8 1
psi_9 2
psi_10 0
psi_11 0
psi_12 1
psi_13 0
psi_14 0
g_0_0 0
g_0_1 0
g_0_2 0
g_0_3 0
g_0_4 0
g_0_5 0
g_0_6 0
g_0_7 0
g_0_8 0
g_0_9 0
g_0_10 0
g_0_11 0
g_0_12 0
g_0_13 0
g_0_14 0
g_1_0 0
g_1_1 0
g_1_2 0
g_1_3 0
g_1_4 0
g_1_5 0
g_1_6 0
g_1_7 0
g_1_8 0
g_1_9 0
g_1_10 0
g_1_11 0
g_1_12 0
g_1_13 0
g_1_14 0
g_2_0 1
g_2_1 1
g_2_2 0
g_2_3 0
g_2_4 0
g_2_5 0
g_2_6 0
g_2_7 0
g_2_8 0
g_2_9 0
g_2_10 0
g_2_11 0
g_2_12 0
g_2_13 0
g_2_14 0
g_3_0 0
g_3_1 1
g_3_2 1
g_3_3 0
g_3_4 0
g_3_5 0
g_3_6 0
g_3_7 0
g_3_8 0
g_3_9 0
g_3_10 0
g_3_11 0
g_3_12 0
g_3_13 0
g_3_14 0
g_4_0 0
g_4_1 0
g_4_2 1
g_4_3 1
g_4_4 0
g_4_5 0
g_4_6 0
g_4_7 0
g_4_8 0
g_4_9 0
g_4_10 0
g_4_11 0
g_4_12 0
g_4_13 0
g_4_14 0
g_5_0 0
g_5_1 0
g_5_2 0
g_5_3 0
g_5_4 0
g_5_5 0
g_5_6 0
g_5_7 0
g_5_8 0
g_5_9 0
g_5_10 0
g_5_11 0
g_5_12 0
g_5_13 0
g_5_14 0
g_6_0 0
g_6_1 0
g_6_2 0
g_6_3 0
g_6_4 1
g_6_5 1
g_6_6 0
g_6_7 0
g_6_8 0
g_6_9 0
g_6_10 0
g_6_11 0
g_6_12 0
g_6_13 0
g_6_14 0
g_7_0 0
g_7_1 0
g_7_2 0
g_7_3 0
g_7_4 0
g_7_5 1
g_7_6 0
g_7_7 0
g_7_8 0
g_7_9 0
g_7_10 0
g_7_11 0
g_7_12 0
g_7_13 0
g_7_14 0
g_8_0 0
g_8_1 0
g_8_2 1
g_8_3 1
g_8_4 0
g_8_5 0
g_8_6 1
g_8_7 0
g_8_8 0
g_8_9 0
g_8_10 0
g_8_11 0
g_8_12 0
g_8_13 0
g_8_14 0
g_9_0 0
g_9_1 0
g_9_2 0
g_9_3 1
g_9_4 0
g_9_5 0
g_9_6 0
g_9_7 1
g_9_8 0
g_9_9 0
g_9_10 0
g_9_11 0
g_9_12 0
g_9_13 0
g_9_14 0
g_10_0 0
g_10_1 0
g_10_2 0
g_10_3 0
g_10_4 0
g_10_5 0
g_10_6 0
g_10_7 1
g_10_8 0
g_10_9 0
g_10_10 0
g_10_11 0
g_10_12 0
g_10_13 0
g_10_14 0
g_11_0 0
g_11_1 0
g_11_2 0
g_11_3 0
g_11_4 1
g_11_5 0
g_11_6 0
g_11_7 1
g_11_8 1
g_11_9 0
g_11_10 0
g_11_11 0
g_11_12 0
g_11_13 0
g_11_14 0
g_12_0 0
g_12_1 1
g_12_2 0
g_12_3 0
g_12_4 0
g_12_5 0
g_12_6 0
g_12_7 0
g_12_8 0
g_12_9 1
g_12_10 0
g_12_11 0
g_12_12 0
g_12_13 0
g_12_14 0
g_13_0 0
g_13_1 1
g_13_2 0
g_13_3 1
g_13_4 0
g_13_5 0
g_13_6 0
g_13_7 0
g_13_8 0
g_13_9 0
g_13_10 0
g_13_11 0
g_13_12 1
g_13_13 0
g_13_14 0
g_14_0 0
g_14_1 0
g_14_2 0
g_14_3 0
g_14_4 0
g_14_5 1
g_14_6 0
g_14_7 0
g_14_8 0
g_14_9 0
g_14_10 0
g_14_11 0
g_14_12 0
g_14_13 0
g_14_14 0
T_0 -4.8673797030864580e-02
T_1 -2.4800570481452688e-01
T_2 -2.0909137934616512e-01
T_3 -1.9726381427420187e-01
T_4 4.6839423141401090e-02
T_5 -2.1181568946959572e-01
T_6 -0.0598425131338284
T_7 -2.4775810522376318e-02
T_8 -2.1752576037052188e-01
T_9 -6.5914027012005036e-03
T_10 -1.8168444877737006e-01
T_11 -1.9395228358676303e-01
T_12 2.0250059195874404e-02
T_13 -2.5206313699262534e-01
T_14 -0.0587284990427458
